(set-logic QF_SLIA)
(set-option :produce-models true)
(declare-const X String)
; \+353\(0\)\s\d\s\d{3}\s\d{4}
(assert (str.in_re X (re.++ (str.to_re "+353(0)") (re.union (str.to_re " ") (str.to_re "\u{09}") (str.to_re "\u{0a}") (str.to_re "\u{0c}") (str.to_re "\u{0d}")) (re.range "0" "9") (re.union (str.to_re " ") (str.to_re "\u{09}") (str.to_re "\u{0a}") (str.to_re "\u{0c}") (str.to_re "\u{0d}")) ((_ re.loop 3 3) (re.range "0" "9")) (re.union (str.to_re " ") (str.to_re "\u{09}") (str.to_re "\u{0a}") (str.to_re "\u{0c}") (str.to_re "\u{0d}")) ((_ re.loop 4 4) (re.range "0" "9")) (str.to_re "\u{0a}"))))
; ([A-Z]:\\[^/:\*\?<>\|]+\.\w{2,6})|(\\{2}[^/:\*\?<>\|]+\.\w{2,6})
(assert (str.in_re X (re.union (re.++ (re.range "A" "Z") (str.to_re ":\u{5c}") (re.+ (re.union (str.to_re "/") (str.to_re ":") (str.to_re "*") (str.to_re "?") (str.to_re "<") (str.to_re ">") (str.to_re "|"))) (str.to_re ".") ((_ re.loop 2 6) (re.union (re.range "0" "9") (re.range "A" "Z") (re.range "a" "z") (str.to_re "_")))) (re.++ (str.to_re "\u{0a}") ((_ re.loop 2 2) (str.to_re "\u{5c}")) (re.+ (re.union (str.to_re "/") (str.to_re ":") (str.to_re "*") (str.to_re "?") (str.to_re "<") (str.to_re ">") (str.to_re "|"))) (str.to_re ".") ((_ re.loop 2 6) (re.union (re.range "0" "9") (re.range "A" "Z") (re.range "a" "z") (str.to_re "_")))))))
; /\.html\?jar$/U
(assert (str.in_re X (str.to_re "/.html?jar/U\u{0a}")))
; libManager\x2Edll\x5Eget
(assert (str.in_re X (str.to_re "libManager.dll^get\u{0a}")))
; ^[0-9]{10}GBR[0-9]{7}[U,M,F]{1}[0-9]{9}$
(assert (not (str.in_re X (re.++ ((_ re.loop 10 10) (re.range "0" "9")) (str.to_re "GBR") ((_ re.loop 7 7) (re.range "0" "9")) ((_ re.loop 1 1) (re.union (str.to_re "U") (str.to_re ",") (str.to_re "M") (str.to_re "F"))) ((_ re.loop 9 9) (re.range "0" "9")) (str.to_re "\u{0a}")))))
(check-sat)
